17	4	3
23	35	22	24	14	37	30	
0	0	0	0	0	8	2	7	8	7	5	3	2	3	4
10	2	9	0	0	5	7	10	7	4	4	3	10	15	17
1	0	0	8	6	1	6	5	2	3	10	3	6	7	17
8	6	7	4	6	2	8	7	4	5	4	3	5	9	12
7	0	9	2	10	1	7	7	7	6	3	2	16	17
250	0	2	6	0	3	3	5	10	1	1	3	8	14	17
100	0	5	7	1	5	6	8	5	2	1	2	11	17
50	3	6	0	0	8	3	6	3	4	9	3	10	15	16
225	4	10	0	1	3	6	7	10	10	1	2	10	17
225	10	0	2	1	3	1	8	10	8	3	2	17	17
25	5	6	8	10	3	10	6	7	10	6	3	12	14	15
100	6	5	0	0	8	4	1	5	8	3	2	13	17
8	3	9	5	1	5	6	6	1	8	10	1	16
7	7	0	0	8	10	10	5	7	9	5	1	17
1	9	5	1	0	7	2	5	4	1	2	1	17
2	0	0	9	0	7	3	2	2	9	1	1	17
0	0	0	0	0	8	7	5	8	1	2	0
